44, 779
605, 3750
912, 3029
875, 1978
1049, 1640
621, 4448
842, 4077
498, 4501
1084, 4999
1247, 1352
926, 3899
1041, 2706
750, 3832
297, 1011
963, 2185
1098, 4472
968, 3433
700, 2584
300, 2421
309, 2897
934, 3846
742, 3833
1181, 4488
1079, 3219
1184, 1812
1032, 1602
1230, 2775
601, 4968
287, 4009
879, 2115
672, 2767
318, 2526
614, 2181
293, 2461
1232, 4032
827, 1636
974, 2582
889, 4002
1133, 2929
276, 3680
775, 2116
719, 2804
722, 2693
279, 1202
486, 2942